NAME (null)_copy
ROWS
 N  OBJ
 E  000002  
 E  000005  
 E  000007  
 E  000008  
 E  000011  
 E  000012  
 E  000014  
 L  000016  
 E  000017  
 E  000018  
 L  000019  
 L  000020  
 E  000021  
 L  000023  
 E  000024  
 E  000025  
 L  000026  
 L  000027  
 E  000028  
 L  000030  
 E  000031  
 E  000032  
 L  000033  
 E  000034  
 L  000035  
 E  000036  
 E  000037  
 E  000038  
 E  000039  
 E  000040  
 E  000041  
 L  000042  
 L  000043  
 L  000044  
 E  000045  
 L  000046  
 E  000047  
 E  000048  
 E  000049  
 E  000050  
 E  000051  
 E  000052  
 L  000053  
 L  000054  
 L  000055  
 E  000056  
 L  000057  
 L  000058  
 L  000059  
 E  000061  
 E  000062  
 L  000063  
 E  000064  
 E  000067  
 E  000068  
 E  000069  
 L  000071  
 E  000072  
 E  000073  
 L  000074  
 L  000075  
 E  000077  
 L  000079  
 E  000080  
 E  000081  
 L  000082  
 E  000084  
 L  000086  
 E  000087  
 E  000088  
 L  000089  
 E  000090  
 E  000092  
 E  000093  
 E  000094  
 E  000095  
 E  000096  
 E  000097  
 L  000098  
 L  000099  
 L  000100  
 E  000101  
 E  000103  
 E  000104  
 E  000105  
 E  000106  
 E  000107  
 E  000108  
 L  000109  
 L  000110  
 L  000111  
 L  000112  
 E  000113  
COLUMNS
    CCC002    000002    1
    CCC002    000014    1
    CCC002    000016    -106
    CCC002    000017    -126
    CCC002    000018    339
    CCC002    000019    -447.5098
    CCC003    000005    1
    CCC003    000014    1
    CCC003    000016    -91.4
    CCC003    000017    -99.3
    CCC003    000018    83
    CCC003    000019    -18.24
    CCC004    000008    1
    CCC004    000014    1
    CCC004    000016    -106.6
    CCC004    000017    -141
    CCC004    000018    68
    CCC004    000019    -301.1599
    CCC005    000011    1
    CCC005    000014    1
    CCC005    000016    -102.6
    CCC005    000017    -190
    CCC005    000018    12
    CCC005    000019    985.6399
    CCC005    000020    100
    CCC006    000014    1
    CCC006    000016    -106.2
    CCC006    000017    -245
    CCC006    000018    6
    CCC006    000019    1101.0898
    CCC006    000062    1
    CCC008    000002    1
    CCC008    000021    1
    CCC008    000023    -105
    CCC008    000024    -114
    CCC008    000025    339
    CCC008    000026    -397.3999
    CCC009    000005    1
    CCC009    000021    1
    CCC009    000023    -89.7
    CCC009    000024    -97
    CCC009    000025    83
    CCC009    000026    39.93
    CCC010    000008    1
    CCC010    000021    1
    CCC010    000023    -105.2
    CCC010    000024    -134
    CCC010    000025    68
    CCC010    000026    -245.37
    CCC011    000011    1
    CCC011    000021    1
    CCC011    000023    -102
    CCC011    000024    -158
    CCC011    000025    12
    CCC011    000026    1053.9199
    CCC011    000027    100
    CCC012    000021    1
    CCC012    000023    -105.4
    CCC012    000024    -218
    CCC012    000025    6
    CCC012    000026    1170.2
    CCC012    000062    1
    CCC013    OBJ       -8
    CCC013    000028    -1
    CCC013    000030    104.6
    CCC013    000031    147.3
    CCC013    000032    -101
    CCC014    000002    1
    CCC014    000028    1
    CCC014    000030    -107
    CCC014    000031    -131
    CCC014    000032    339
    CCC014    000033    -287.1499
    CCC015    000005    1
    CCC015    000028    1
    CCC015    000030    -92.5
    CCC015    000031    -100.7
    CCC015    000032    83
    CCC015    000033    167.91
    CCC016    000008    1
    CCC016    000028    1
    CCC016    000030    -107.4
    CCC016    000031    -146
    CCC016    000032    68
    CCC016    000033    -122.63
    CCC017    000011    1
    CCC017    000028    1
    CCC017    000030    -102.9
    CCC017    000031    -203
    CCC017    000032    12
    CCC017    000033    1204.1199
    CCC018    000028    1
    CCC018    000030    -106.5
    CCC018    000031    -255
    CCC018    000032    6
    CCC018    000033    1322.23
    CCC018    000062    1
    CCC019    000028    1
    CCC019    000030    -107.1
    CCC019    000031    -153
    CCC019    000032    65
    CCC019    000033    -107.5
    CCC019    000113    1
    CCC020    OBJ       -4.2
    CCC020    000034    -1
    CCC020    000035    -1
    CCC020    000036    7.15
    CCC020    000037    -0.91
    CCC020    000040    -1
    CCC020    000041    -131
    CCC020    000042    -50
    CCC020    000043    50
    CCC020    000044    90
    CCC021    000036    -1.3
    CCC021    000038    -1
    CCC023    OBJ       0.0024
    CCC023    000039    -1
    CCC024    OBJ       1.89
    CCC024    000034    1
    CCC024    000036    -1.3000000000000007e+00
    CCC024    000037    -80
    CCC024    000041    1100
    CCC024    000042    100
    CCC024    000043    -100
    CCC024    000044    -100
    CCC025    OBJ       100
    CCC025    000007    1
    CCC025    000034    1
    CCC025    000036    -1.0999999999999996e+00
    CCC025    000037    -70.7
    CCC025    000041    61
    CCC025    000042    33.5
    CCC025    000043    -71.3
    CCC025    000044    -100
    CCC027    000011    1
    CCC027    000034    1
    CCC027    000036    -10.5
    CCC027    000037    -23.4
    CCC027    000041    12
    CCC027    000044    -100
    CCC028    000012    1
    CCC028    000034    1
    CCC028    000036    5.6000000000000050e-01
    CCC028    000037    -42.4
    CCC028    000041    115
    CCC028    000042    53.2
    CCC028    000043    -63.2
    CCC028    000044    -96
    CCC029    000034    1
    CCC029    000036    -9.6000000000000014e+00
    CCC029    000037    -28.1
    CCC029    000041    176
    CCC029    000042    75.8
    CCC029    000043    -85.3
    CCC029    000044    -100
    CCC029    000067    1
    CCC030    OBJ       -4
    CCC030    000045    -1
    CCC030    000046    -1
    CCC030    000047    6.325
    CCC030    000048    -2.28
    CCC030    000051    -1
    CCC030    000052    -140
    CCC030    000053    -50
    CCC030    000054    50
    CCC030    000055    90
    CCC031    OBJ       1.89
    CCC031    000045    1
    CCC031    000047    -14.95
    CCC031    000048    -80
    CCC031    000052    1100
    CCC031    000053    100
    CCC031    000054    -100
    CCC031    000055    -100
    CCC036    000044    8.2642443930224289e+01
    CCC036    000043    1.2714222143111428e+01
    CCC036    000042    -7.8241367034531866e+00
    CCC036    000041    -1.9560341758632969e+01
    CCC036    000037    3.7849261302954794e+01
    CCC036    000036    0.684611961552154
    CCC036    000034    -9.7801708793164832e-01
    CCC036    000045    1
    CCC036    000047    4.0000000000000036e-01
    CCC036    000048    -57.4
    CCC036    000052    22
    CCC036    000053    16
    CCC036    000054    -33.4
    CCC036    000055    -95
    CCC038    000056    1
    CCC038    000069    1
    CCC038    000071    -106
    CCC038    000072    -130
    CCC038    000073    346
    CCC038    000074    -440.7
    CCC038    000075    100
    CCC039    000058    1
    CCC039    000069    1
    CCC039    000071    -99.5
    CCC039    000072    -100
    CCC039    000073    114
    CCC039    000074    -278.47
    CCC039    000075    88.96
    CCC040    000059    1
    CCC040    000069    1
    CCC040    000071    -89
    CCC040    000072    -92
    CCC040    000073    32
    CCC040    000074    50.36
    CCC041    000061    1
    CCC041    000069    1
    CCC041    000071    -106
    CCC041    000072    -147
    CCC041    000073    67
    CCC041    000074    -303.5898
    CCC041    000075    14.69
    CCC042    000062    1
    CCC042    000069    1
    CCC042    000071    -104
    CCC042    000072    -200
    CCC042    000073    6
    CCC042    000074    1101.0898
    CCC044    000056    1
    CCC044    000077    1
    CCC044    000079    -104.3
    CCC044    000080    -120
    CCC044    000081    346
    CCC044    000082    -390.6099
    CCC045    000058    1
    CCC045    000077    1
    CCC045    000079    -98.1
    CCC045    000080    -83
    CCC045    000081    114
    CCC045    000082    -224.85
    CCC046    000061    1
    CCC046    000077    1
    CCC046    000079    -104.5
    CCC046    000080    -137
    CCC046    000081    67
    CCC046    000082    -247.74
    CCC047    000062    1
    CCC047    000077    1
    CCC047    000079    -103.5
    CCC047    000080    -190
    CCC047    000081    6
    CCC047    000082    1170.2
    CCC048    OBJ       -8
    CCC048    000084    -1
    CCC048    000086    104.6
    CCC048    000087    147.3
    CCC048    000088    -101
    CCC049    000056    1
    CCC049    000084    1
    CCC049    000086    -106.8
    CCC049    000087    -135
    CCC049    000088    346
    CCC049    000089    -280.4099
    CCC050    000058    1
    CCC050    000084    1
    CCC050    000086    -100.4
    CCC050    000087    -109
    CCC050    000088    114
    CCC050    000089    -106.88
    CCC051    000061    1
    CCC051    000084    1
    CCC051    000086    -106.8
    CCC051    000087    -151.5
    CCC051    000088    67
    CCC051    000089    -124.88
    CCC052    000062    1
    CCC052    000084    1
    CCC052    000086    -104.2
    CCC052    000087    -205
    CCC052    000088    6
    CCC052    000089    1322.23
    CCC054    OBJ       0.0024
    CCC054    000095    -1
    CCC055    000092    -2
    CCC055    000094    -1
    CCC057    OBJ       1.89
    CCC057    000090    1
    CCC057    000092    -1.3000000000000007e+00
    CCC057    000093    -82.2
    CCC057    000097    1100
    CCC057    000098    100
    CCC057    000099    -100
    CCC057    000100    -100
    CCC058    OBJ       100
    CCC058    000061    1
    CCC058    000090    1
    CCC058    000092    -7.0000000000000018e-01
    CCC058    000093    -71.3
    CCC058    000097    67
    CCC058    000098    37
    CCC058    000099    -61.2
    CCC058    000100    -100
    CCC059    000063    1
    CCC059    000090    1
    CCC059    000092    16.6
    CCC059    000093    -68.2
    CCC059    000097    32
    CCC059    000098    23.3
    CCC059    000099    -70
    CCC059    000100    -100
    CCC060    000064    1
    CCC060    000090    1
    CCC060    000092    -3.2400000000000006e+01
    CCC060    000093    -28.8
    CCC060    000100    -100
    CCC062    000067    1
    CCC062    000090    1
    CCC062    000092    -9.6000000000000014e+00
    CCC062    000093    -28.1
    CCC062    000097    176
    CCC062    000098    75.8
    CCC062    000099    -85.3
    CCC062    000100    -100
    CCC063    OBJ       -4
    CCC063    000068    -0.1
    CCC063    000101    -1
    CCC063    000103    8.25
    CCC063    000104    -0.59
    CCC063    000107    -1
    CCC063    000108    -140
    CCC063    000109    -50
    CCC063    000110    50
    CCC063    000111    90
    CCC064    OBJ       1.89
    CCC064    000101    1
    CCC064    000103    -14.95
    CCC064    000104    -82.2
    CCC064    000108    1100
    CCC064    000109    100
    CCC064    000110    -100
    CCC064    000111    -100
    CCC065    000057    1
    CCC065    000101    1
    CCC065    000103    13.65
    CCC065    000104    -80.2
    CCC065    000108    271
    CCC065    000109    100
    CCC065    000110    -100
    CCC065    000111    -100
    CCC067    000063    1
    CCC067    000101    1
    CCC067    000103    6.1
    CCC067    000104    -68.2
    CCC067    000108    32
    CCC067    000109    70
    CCC067    000110    -95
    CCC067    000111    -100
    CCC068    000100    8.0197401210395157e+01
    CCC068    000099    1.7604307582769671e+01
    CCC068    000098    -9.09555891776433
    CCC068    000097    -2.4450427198291209e+01
    CCC068    000093    5.1052491990032046e+01
    CCC068    000092    -4.2250338198647208e+00
    CCC068    000090    -9.7801708793164832e-01
    CCC068    000101    1
    CCC068    000103    -2.5200000000000005e+00
    CCC068    000104    -49.2
    CCC068    000108    19
    CCC068    000109    15.5
    CCC068    000110    -29.8
    CCC068    000111    -93.8
    CCC069    OBJ       3
    CCC069    000068    1
    CCC069    000101    1
    CCC069    000103    -14.7
    CCC069    000104    -30
    CCC069    000108    6
    CCC069    000109    2.3
    CCC069    000110    -10
    CCC069    000111    -82
    CCC070    000101    1
    CCC070    000103    6.6999999999999993e+00
    CCC070    000104    -68.2
    CCC070    000108    243
    CCC070    000109    90.8
    CCC070    000110    -94.7
    CCC070    000111    -100
    CCC070    000112    1
    CCC085    000002    1
    CCC085    000034    1
    CCC085    000036    2.4699999999999989e+00
    CCC085    000037    -80
    CCC085    000041    339
    CCC085    000042    100
    CCC085    000043    -100
    CCC085    000044    -100
    CCC086    OBJ       100
    CCC086    000008    1
    CCC086    000034    1
    CCC086    000037    -75.2
    CCC086    000041    68
    CCC086    000042    32
    CCC086    000043    -63
    CCC086    000044    -100
    CCC089    000047    -1.15
    CCC089    000049    -1
    CCC091    OBJ       0.0022
    CCC091    000050    -1
    CCC096    000056    1
    CCC096    000090    1
    CCC096    000092    1.2999999999999989e+00
    CCC096    000093    -63.2
    CCC096    000097    346
    CCC096    000098    100
    CCC096    000099    -100
    CCC096    000100    -100
    CCC097    000058    1
    CCC097    000090    1
    CCC097    000092    15
    CCC097    000093    -70
    CCC097    000097    114
    CCC097    000098    100
    CCC097    000099    -100
    CCC097    000100    -100
    CCC099    000103    -1.5
    CCC099    000105    -1
    CCC101    OBJ       0.0022
    CCC101    000106    -1
    CCC110    000021    1
    CCC110    000023    -104.7
    CCC110    000024    -145.3
    CCC110    000025    65
    CCC110    000026    -230.54
    CCC110    000113    1
    CCC111    000055    100
    CCC111    000054    98
    CCC111    000053    -96.5
    CCC111    000052    -169
    CCC111    000048    54.6
    CCC111    000047    7.95
    CCC111    000045    -1
    CCC111    000034    1
    CCC111    000036    7.8000000000000007e+00
    CCC111    000037    -54.6
    CCC111    000041    169
    CCC111    000042    94.2
    CCC111    000043    -96.5
    CCC111    000044    -100
    CCC112    000012    1
    CCC112    000045    1
    CCC112    000047    -14.14
    CCC112    000048    -42.4
    CCC112    000052    115
    CCC112    000053    63.2
    CCC112    000054    -73
    CCC112    000055    -99.7
    CCC113    000064    1
    CCC113    000069    1
    CCC113    000071    -101
    CCC113    000072    -170
    CCC113    000074    982.3098
    CCC114    000064    1
    CCC114    000077    1
    CCC114    000079    -100.6
    CCC114    000080    -165
    CCC114    000082    1050.3398
    CCC115    000064    1
    CCC115    000084    1
    CCC115    000086    -101.8
    CCC115    000087    -173
    CCC115    000089    1200
    CCC116    000111    100
    CCC116    000110    100
    CCC116    000109    -100
    CCC116    000108    -195
    CCC116    000104    59.3
    CCC116    000103    5.25
    CCC116    000101    -1
    CCC116    000090    1
    CCC116    000092    10.5
    CCC116    000093    -59.3
    CCC116    000097    195
    CCC116    000098    100
    CCC116    000099    -100
    CCC116    000100    -100
    CCC117    000058    1
    CCC117    000101    1
    CCC117    000103    4.5
    CCC117    000104    -70
    CCC117    000108    114
    CCC117    000109    100
    CCC117    000110    -100
    CCC117    000111    -100
    CCC124    OBJ       10
    CCC124    000014    1
    CCC124    000016    -109
    CCC124    000017    -146
    CCC124    000018    1100
    CCC124    000019    -479.5598
    CCC125    000007    1
    CCC125    000014    1
    CCC125    000016    -106.5
    CCC125    000017    -138.5
    CCC125    000018    61
    CCC125    000019    -275.1899
    CCC126    OBJ       0.06
    CCC126    000014    1
    CCC126    000016    -106
    CCC126    000017    -136
    CCC126    000018    367
    CCC126    000019    -429.7898
    CCC126    000056    1
    CCC127    OBJ       0.06
    CCC127    000014    1
    CCC127    000016    -101
    CCC127    000017    -150
    CCC127    000019    1020
    CCC127    000020    100
    CCC127    000064    1
    CCC128    000014    1
    CCC128    000016    -106
    CCC128    000017    -150
    CCC128    000018    65
    CCC128    000019    -286.47
    CCC128    000113    1
    CCC129    OBJ       10
    CCC129    000021    1
    CCC129    000023    -107.3
    CCC129    000024    -139
    CCC129    000025    1100
    CCC129    000026    -432.7998
    CCC130    000007    1
    CCC130    000021    1
    CCC130    000023    -105.3
    CCC130    000024    -131.8
    CCC130    000025    61
    CCC130    000026    -219.01
    CCC131    OBJ       0.06
    CCC131    000021    1
    CCC131    000023    -104.3
    CCC131    000024    -124.5
    CCC131    000025    367
    CCC131    000026    -386
    CCC131    000056    1
    CCC132    OBJ       0.06
    CCC132    000021    1
    CCC132    000023    -100.6
    CCC132    000024    -130
    CCC132    000026    1081
    CCC132    000027    100
    CCC132    000064    1
    CCC133    OBJ       10
    CCC133    000028    1
    CCC133    000030    -110
    CCC133    000031    -150
    CCC133    000032    1100
    CCC133    000033    -329.9299
    CCC134    000007    1
    CCC134    000028    1
    CCC134    000030    -107.3
    CCC134    000031    -141
    CCC134    000032    61
    CCC134    000033    -95.42
    CCC135    OBJ       0.06
    CCC135    000028    1
    CCC135    000030    -107.8
    CCC135    000031    -139.3
    CCC135    000032    351
    CCC135    000033    -273.3899
    CCC135    000056    1
    CCC136    OBJ       0.06
    CCC136    000028    1
    CCC136    000030    -102.8
    CCC136    000031    -170
    CCC136    000032    6
    CCC136    000033    1237
    CCC136    000064    1
    CCC137    000037    35
    CCC137    000038    3.34
    CCC137    000039    84
    CCC137    000040    1
    CCC138    000037    35
    CCC138    000038    3.68
    CCC138    000039    105
    CCC138    000040    1
    CCC139    000037    35
    CCC139    000038    3.91
    CCC139    000039    121.8
    CCC139    000040    1
    CCC140    000037    40
    CCC140    000038    3.93
    CCC140    000039    84
    CCC140    000040    1
    CCC141    000037    40
    CCC141    000038    4.32
    CCC141    000039    105
    CCC141    000040    1
    CCC142    000037    40
    CCC142    000038    4.61
    CCC142    000039    121.8
    CCC142    000040    1
    CCC143    000037    45
    CCC143    000038    4.56
    CCC143    000039    84
    CCC143    000040    1
    CCC144    000037    45
    CCC144    000038    5.05
    CCC144    000039    105
    CCC144    000040    1
    CCC145    000037    45
    CCC145    000038    5.38
    CCC145    000039    121.8
    CCC145    000040    1
    CCC146    000037    50
    CCC146    000038    5.25
    CCC146    000039    84
    CCC146    000040    1
    CCC147    000037    50
    CCC147    000038    5.77
    CCC147    000039    105
    CCC147    000040    1
    CCC148    000037    50
    CCC148    000038    6.199
    CCC148    000039    121.8
    CCC148    000040    1
    CCC149    000037    55
    CCC149    000038    5.98
    CCC149    000039    84
    CCC149    000040    1
    CCC150    000037    55
    CCC150    000038    6.65
    CCC150    000039    105
    CCC150    000040    1
    CCC151    000037    55
    CCC151    000038    7.107
    CCC151    000039    121.8
    CCC151    000040    1
    CCC152    OBJ       -4.2
    CCC152    000100    90
    CCC152    000099    50
    CCC152    000098    -50
    CCC152    000097    -131
    CCC152    000096    -1
    CCC152    000093    -2
    CCC152    000092    11
    CCC152    000090    -1
    CCC152    000035    -1
    CCC153    000055    100
    CCC153    000054    98.5
    CCC153    000053    -97
    CCC153    000052    -218
    CCC153    000048    68
    CCC153    000047    -10.4
    CCC153    000045    -1
    CCC153    000034    1
    CCC153    000036    2.4049999999999997e+01
    CCC153    000037    -68
    CCC153    000041    218
    CCC153    000042    95
    CCC153    000043    -97
    CCC153    000044    -100
    CCC154    000055    100
    CCC154    000054    93
    CCC154    000053    -87.7
    CCC154    000052    -171
    CCC154    000048    63.7
    CCC154    000047    -7.1999999999999993e+00
    CCC154    000045    -1
    CCC154    000034    1
    CCC154    000036    17.7
    CCC154    000037    -63.7
    CCC154    000041    171
    CCC154    000042    76.5
    CCC154    000043    -87.7
    CCC154    000044    -99.7
    CCC155    000055    100
    CCC155    000054    98
    CCC155    000053    -80
    CCC155    000052    -65
    CCC155    000048    78.2
    CCC155    000047    -4.9
    CCC155    000045    -1
    CCC155    000034    1
    CCC155    000036    1.5399999999999999e+01
    CCC155    000037    -78.2
    CCC155    000041    65
    CCC155    000042    43
    CCC155    000043    -80
    CCC155    000044    -100
    CCC155    000097    61
    CCC156    000055    76.8
    CCC156    000052    -6
    CCC156    000048    39.9
    CCC156    000047    8.3999999999999986e+00
    CCC156    000045    -1
    CCC156    000034    1
    CCC156    000036    6.3000000000000007e+00
    CCC156    000037    -39.9
    CCC156    000041    6
    CCC156    000044    -39
    CCC157    000055    100
    CCC157    000054    87
    CCC157    000053    -61.8
    CCC157    000052    -47
    CCC157    000048    71.2
    CCC157    000047    -10.5
    CCC157    000045    -1
    CCC157    000034    1
    CCC157    000036    21
    CCC157    000037    -71.2
    CCC157    000041    47
    CCC157    000042    21.5
    CCC157    000043    -61.8
    CCC157    000044    -100
    CCC158    000012    -1
    CCC158    000046    -1
    CCC159    000005    1
    CCC159    000045    1
    CCC159    000047    6.3000000000000007e+00
    CCC159    000048    -64.2
    CCC159    000052    83
    CCC159    000053    83.5
    CCC159    000054    -94.4
    CCC159    000055    -100
    CCC160    000045    1
    CCC160    000047    6.6999999999999993e+00
    CCC160    000048    -68.2
    CCC160    000052    243
    CCC160    000053    90.8
    CCC160    000054    -94.7
    CCC160    000055    -100
    CCC160    000112    1
    CCC161    000048    50
    CCC161    000051    1
    CCC162    000048    50
    CCC162    000049    2.064
    CCC162    000050    12.6
    CCC162    000051    1
    CCC163    000048    50
    CCC163    000049    3.617
    CCC163    000050    25.2
    CCC163    000051    1
    CCC164    000048    50
    CCC164    000049    4.806
    CCC164    000050    37.8
    CCC164    000051    1
    CCC165    000048    50
    CCC165    000049    5.743
    CCC165    000050    50.4
    CCC165    000051    1
    CCC166    000048    55
    CCC166    000051    1
    CCC167    000048    55
    CCC167    000049    2.329
    CCC167    000050    12.6
    CCC167    000051    1
    CCC168    000048    55
    CCC168    000049    4.094
    CCC168    000050    25.2
    CCC168    000051    1
    CCC169    000048    55
    CCC169    000049    5.449
    CCC169    000050    37.8
    CCC169    000051    1
    CCC170    000048    55
    CCC170    000049    6.543
    CCC170    000050    50.4
    CCC170    000051    1
    CCC171    000048    60
    CCC171    000051    1
    CCC172    000048    60
    CCC172    000049    2.614
    CCC172    000050    12.6
    CCC172    000051    1
    CCC173    000048    60
    CCC173    000049    4.609
    CCC173    000050    25.2
    CCC173    000051    1
    CCC174    000048    60
    CCC174    000049    6.147
    CCC174    000050    37.8
    CCC174    000051    1
    CCC175    000048    60
    CCC175    000049    7.379
    CCC175    000050    50.4
    CCC175    000051    1
    CCC176    000048    65
    CCC176    000051    1
    CCC177    000048    65
    CCC177    000049    2.91
    CCC177    000050    12.6
    CCC177    000051    1
    CCC178    000048    65
    CCC178    000049    5.143
    CCC178    000050    25.2
    CCC178    000051    1
    CCC179    000048    65
    CCC179    000049    6.881
    CCC179    000050    37.8
    CCC179    000051    1
    CCC180    000048    65
    CCC180    000049    9.19
    CCC180    000050    50.4
    CCC180    000051    1
    CCC181    000048    70
    CCC181    000051    1
    CCC182    000048    70
    CCC182    000049    3.217
    CCC182    000050    12.6
    CCC182    000051    1
    CCC183    000048    70
    CCC183    000049    5.701
    CCC183    000050    25.2
    CCC183    000051    1
    CCC184    000048    70
    CCC184    000049    7.657
    CCC184    000050    37.8
    CCC184    000051    1
    CCC185    000048    70
    CCC185    000049    9.241
    CCC185    000050    50.4
    CCC185    000051    1
    CCC186    OBJ       10
    CCC186    000069    1
    CCC186    000071    -109
    CCC186    000072    -146
    CCC186    000073    1100
    CCC186    000074    -479.5598
    CCC186    000075    100
    CCC187    OBJ       10
    CCC187    000077    1
    CCC187    000079    -107.3
    CCC187    000080    -139
    CCC187    000081    1100
    CCC187    000082    -432.7998
    CCC188    000059    1
    CCC188    000077    1
    CCC188    000079    -87
    CCC188    000080    -75
    CCC188    000081    32
    CCC188    000082    110.29
    CCC189    OBJ       10
    CCC189    000084    1
    CCC189    000086    -110
    CCC189    000087    -150
    CCC189    000088    1100
    CCC189    000089    -329.9299
    CCC190    000059    1
    CCC190    000084    1
    CCC190    000086    -89.5
    CCC190    000087    -101
    CCC190    000088    32
    CCC190    000089    242.13
    CCC192    000093    35
    CCC192    000096    1
    CCC193    000093    35
    CCC193    000094    1.05
    CCC193    000095    21
    CCC193    000096    1
    CCC194    000093    35
    CCC194    000094    2.46
    CCC194    000095    42
    CCC194    000096    1
    CCC195    000093    35
    CCC195    000094    2.96
    CCC195    000095    63
    CCC195    000096    1
    CCC196    000093    35
    CCC196    000094    3.34
    CCC196    000095    84
    CCC196    000096    1
    CCC197    000093    40
    CCC197    000096    1
    CCC198    000093    40
    CCC198    000094    1.78
    CCC198    000095    21
    CCC198    000096    1
    CCC199    000093    40
    CCC199    000094    2.89
    CCC199    000095    42
    CCC199    000096    1
    CCC200    000093    40
    CCC200    000094    3.49
    CCC200    000095    63
    CCC200    000096    1
    CCC201    000093    40
    CCC201    000094    3.93
    CCC201    000095    84
    CCC201    000096    1
    CCC202    000093    45
    CCC202    000096    1
    CCC203    000093    45
    CCC203    000094    2.13
    CCC203    000095    21
    CCC203    000096    1
    CCC204    000093    45
    CCC204    000094    3.35
    CCC204    000095    42
    CCC204    000096    1
    CCC205    000093    45
    CCC205    000094    4.04
    CCC205    000095    63
    CCC205    000096    1
    CCC206    000093    45
    CCC206    000094    4.56
    CCC206    000095    84
    CCC206    000096    1
    CCC207    000093    50
    CCC207    000096    1
    CCC208    000093    50
    CCC208    000094    2.46
    CCC208    000095    21
    CCC208    000096    1
    CCC209    000093    50
    CCC209    000094    3.84
    CCC209    000095    42
    CCC209    000096    1
    CCC210    000093    50
    CCC210    000094    4.64
    CCC210    000095    63
    CCC210    000096    1
    CCC211    000093    50
    CCC211    000094    5.25
    CCC211    000095    84
    CCC211    000096    1
    CCC212    000093    55
    CCC212    000096    1
    CCC213    000093    55
    CCC213    000094    2.78
    CCC213    000095    21
    CCC213    000096    1
    CCC214    000093    55
    CCC214    000094    4.35
    CCC214    000095    42
    CCC214    000096    1
    CCC215    000093    55
    CCC215    000094    5.29
    CCC215    000095    63
    CCC215    000096    1
    CCC216    000093    55
    CCC216    000094    5.98
    CCC216    000095    84
    CCC216    000096    1
    CCC217    000057    1
    CCC217    000090    1
    CCC217    000092    2.7300000000000004e+01
    CCC217    000093    -80.2
    CCC217    000097    271
    CCC217    000098    100
    CCC217    000099    -100
    CCC217    000100    -100
    CCC218    000062    1
    CCC218    000090    1
    CCC218    000092    -4.5900000000000006e+01
    CCC218    000093    -5.2
    CCC218    000097    6
    CCC218    000099    -55
    CCC218    000100    -100
    CCC219    000059    1
    CCC219    000101    1
    CCC219    000103    8.5
    CCC219    000104    -61.2
    CCC219    000108    32
    CCC219    000109    94
    CCC219    000110    -100
    CCC219    000111    -100
    CCC220    000067    1
    CCC220    000101    1
    CCC220    000103    -43.2
    CCC220    000104    -28.1
    CCC220    000108    176
    CCC220    000109    85.3
    CCC220    000110    -92.8
    CCC220    000111    -100
    CCC221    000104    50
    CCC221    000107    1
    CCC222    000104    50
    CCC222    000105    2.064
    CCC222    000106    12.6
    CCC222    000107    1
    CCC223    000104    50
    CCC223    000105    3.617
    CCC223    000106    25.2
    CCC223    000107    1
    CCC224    000104    50
    CCC224    000105    4.806
    CCC224    000106    37.8
    CCC224    000107    1
    CCC225    000104    50
    CCC225    000105    5.743
    CCC225    000106    50.4
    CCC225    000107    1
    CCC226    000104    55
    CCC226    000107    1
    CCC227    000104    55
    CCC227    000105    2.329
    CCC227    000106    12.6
    CCC227    000107    1
    CCC228    000104    55
    CCC228    000105    4.094
    CCC228    000106    25.2
    CCC228    000107    1
    CCC229    000104    55
    CCC229    000105    5.449
    CCC229    000106    37.8
    CCC229    000107    1
    CCC230    000104    55
    CCC230    000105    6.543
    CCC230    000106    50.4
    CCC230    000107    1
    CCC231    000104    60
    CCC231    000107    1
    CCC232    000104    60
    CCC232    000105    2.614
    CCC232    000106    12.6
    CCC232    000107    1
    CCC233    000104    60
    CCC233    000105    4.609
    CCC233    000106    25.2
    CCC233    000107    1
    CCC234    000104    60
    CCC234    000105    6.147
    CCC234    000106    37.8
    CCC234    000107    1
    CCC235    000104    60
    CCC235    000105    7.379
    CCC235    000106    50.4
    CCC235    000107    1
    CCC236    000104    65
    CCC236    000107    1
    CCC237    000104    65
    CCC237    000105    2.91
    CCC237    000106    12.6
    CCC237    000107    1
    CCC238    000104    65
    CCC238    000105    5.143
    CCC238    000106    25.2
    CCC238    000107    1
    CCC239    000104    65
    CCC239    000105    6.881
    CCC239    000106    37.8
    CCC239    000107    1
    CCC240    000104    65
    CCC240    000105    9.19
    CCC240    000106    50.4
    CCC240    000107    1
    CCC241    000104    70
    CCC241    000107    1
    CCC242    000104    70
    CCC242    000105    3.217
    CCC242    000106    12.6
    CCC242    000107    1
    CCC243    000104    70
    CCC243    000105    5.701
    CCC243    000106    25.2
    CCC243    000107    1
    CCC244    000104    70
    CCC244    000105    7.567
    CCC244    000106    37.8
    CCC244    000107    1
    CCC245    000104    70
    CCC245    000105    9.241
    CCC245    000106    50.4
    CCC245    000107    1
    CCC250    OBJ       100
    CCC250    000068    1
RHS
    RHS1      OBJ       8.8855195800000020e+03
    RHS1      000002    113
    RHS1      000005    197
    RHS1      000007    282
    RHS1      000008    351
    RHS1      000011    215
    RHS1      000012    1106
    RHS1      000014    333.8999
    RHS1      000016    -33389.9899
    RHS1      000017    -4.3573936850000006e+04
    RHS1      000018    33723.89
    RHS1      000019    0.0001
    RHS1      000020    4.6745987000000005e+03
    RHS1      000021    72.8001
    RHS1      000023    -7.4765598999999993e+03
    RHS1      000024    -9915.3599
    RHS1      000025    7.3528000999999995e+03
    RHS1      000026    0.0001
    RHS1      000027    8.7360009999999988e+02
    RHS1      000030    0.0001
    RHS1      000031    0.0001
    RHS1      000032    0.0001
    RHS1      000033    0.0001
    RHS1      000034    -2.0303487006051976e+03
    RHS1      000035    -2320
    RHS1      000036    1.4212441904236387e+03
    RHS1      000037    7.8574494813421159e+04
    RHS1      000038    0.0001
    RHS1      000039    0.0001
    RHS1      000040    0.0001
    RHS1      000041    -4.0606973912103953e+04
    RHS1      000042    -1.6242789504841581e+04
    RHS1      000043    2.6394533207867571e+04
    RHS1      000044    1.7156446530113919e+05
    RHS1      000045    -1286
    RHS1      000046    -2935.5999
    RHS1      000047    7.3710009999999920e+02
    RHS1      000048    76139.9001
    RHS1      000049    0.0001
    RHS1      000050    0.0001
    RHS1      000051    0.0001
    RHS1      000052    -130812.9999
    RHS1      000053    -8.5555199899999992e+04
    RHS1      000054    95800.0001
    RHS1      000055    122127.2001
    RHS1      000056    125
    RHS1      000057    121
    RHS1      000058    258
    RHS1      000059    74
    RHS1      000061    785
    RHS1      000062    152
    RHS1      000063    234
    RHS1      000064    104
    RHS1      000067    604
    RHS1      000069    82.8
    RHS1      000071    -8279.9999
    RHS1      000072    -10805.3999
    RHS1      000073    8.3628000999999986e+03
    RHS1      000074    0.0001
    RHS1      000075    3725.9999
    RHS1      000077    148.4
    RHS1      000079    -1.5240679900000001e+04
    RHS1      000080    -2.0212079899999997e+04
    RHS1      000081    14988.4001
    RHS1      000082    0.0001
    RHS1      000086    0.0001
    RHS1      000087    0.0001
    RHS1      000088    0.0001
    RHS1      000089    0.0001
    RHS1      000090    2.0179712321110719e+02
    RHS1      000092    -2.6990266795728021e+04
    RHS1      000093    9.8494104848380215e+04
    RHS1      000094    0.0001
    RHS1      000095    0.0001
    RHS1      000096    2.1156000000000004e+03
    RHS1      000097    2.3145851758027766e+05
    RHS1      000098    8.8986029275863315e+04
    RHS1      000099    -7.3275544917799940e+04
    RHS1      000100    -3.2284163203310774e+04
    RHS1      000101    -422
    RHS1      000103    2215.5001
    RHS1      000104    25024.6001
    RHS1      000105    0.0001
    RHS1      000106    0.0001
    RHS1      000107    0.0001
    RHS1      000108    -82289.9999
    RHS1      000109    -42199.9999
    RHS1      000110    42200.0001
    RHS1      000111    42200.0001
    RHS1      000112    575
    RHS1      000113    186
BOUNDS
 UP BND1      CCC002    9.9580981976401176e+01
 UP BND1      CCC003    197.198
 UP BND1      CCC004    309.345048133688
 UP BND1      CCC005    4.6793732987000006e+01
 UP BND1      CCC006    152.153
 UP BND1      CCC008    2.1712365487020648e+01
 UP BND1      CCC009    72.8739001
 UP BND1      CCC010    72.8739001
 UP BND1      CCC011    8.7457370009999984e+00
 UP BND1      CCC012    4.5529785595871559e+01
 LO BND1      CCC013    237.4
 UP BND1      CCC014    113.114
 UP BND1      CCC015    197.198
 UP BND1      CCC016    351.352
 UP BND1      CCC017    215.216
 UP BND1      CCC018    152.153
 UP BND1      CCC019    186.187
 UP BND1      CCC025    282.283
 UP BND1      CCC027    215.216
 UP BND1      CCC029    604.605
 UP BND1      CCC036    2.0759848939848939e+03
 UP BND1      CCC038    2.4195112428034676e+01
 UP BND1      CCC039    4.1926875673336333e+01
 UP BND1      CCC040    74.075
 UP BND1      CCC041    73.5806278904762
 UP BND1      CCC042    5.1857163070261215e+01
 UP BND1      CCC044    4.3363394508959544e+01
 UP BND1      CCC045    1.3160967105350878e+02
 UP BND1      CCC046    1.4768196335693429e+02
 UP BND1      CCC047    7.6073142288608423e+01
 LO BND1      CCC048    464.3999
 UP BND1      CCC049    125.126
 UP BND1      CCC050    258.259
 UP BND1      CCC051    785.786
 UP BND1      CCC052    152.153
 UP BND1      CCC058    785.786
 UP BND1      CCC059    234.235
 UP BND1      CCC060    104.105
 UP BND1      CCC062    604.605
 LO BND1      CCC063    1602.2
 UP BND1      CCC065    121.122
 UP BND1      CCC067    234.235
 UP BND1      CCC068    1.8463918463918465e+03
 UP BND1      CCC070    575.576
 UP BND1      CCC085    113.114
 UP BND1      CCC086    351.352
 UP BND1      CCC096    125.126
 UP BND1      CCC097    258.259
 UP BND1      CCC110    6.8309845560220225e+01
 UP BND1      CCC111    428
 UP BND1      CCC113    1.0764000999999999e+01
 UP BND1      CCC114    16.324001
 UP BND1      CCC115    104.105
 UP BND1      CCC116    422
 UP BND1      CCC117    258.259
 UP BND1      CCC124    30.6897399
 UP BND1      CCC125    282.283
 UP BND1      CCC126    9.1983599155313357e+01
 UP BND1      CCC127    4.6793732987000006e+01
 UP BND1      CCC128    186.187
 UP BND1      CCC129    6.6920480909999993e+00
 UP BND1      CCC130    72.8739001
 UP BND1      CCC131    2.0055912534332421e+01
 UP BND1      CCC132    8.7457370009999984e+00
 UP BND1      CCC134    282.283
 UP BND1      CCC135    125.126
 UP BND1      CCC136    104.105
 UP BND1      CCC153    124
 UP BND1      CCC154    44
 UP BND1      CCC155    163
 UP BND1      CCC156    279
 UP BND1      CCC157    248
 UP BND1      CCC159    197.198
 UP BND1      CCC160    575.576
 UP BND1      CCC186    7.6111480909999987e+00
 UP BND1      CCC187    1.3640444090999999e+01
 UP BND1      CCC188    74.075
 UP BND1      CCC190    74.075
 UP BND1      CCC217    121.122
 UP BND1      CCC218    152.153
 UP BND1      CCC219    74.075
 UP BND1      CCC220    604.605
ENDATA
